c description: Random 3-CNF over 20 variables and 85 clauses
c generator: CNFgen (0.9.2)
c copyright: (C) 2012-2022 Massimo Lauria <massimo.lauria@uniroma1.it>
c url: https://massimolauria.net/cnfgen
c command line: cnfgen --output CNF_4.28/20_bit_85_962.cnf randkcnf 3 20 85
c
p cnf 20 85
-1 4 12 0
4 13 19 0
-10 11 15 0
9 -11 -16 0
2 7 -11 0
8 -17 -20 0
-1 -9 17 0
9 -11 17 0
-2 15 18 0
4 16 -18 0
4 -6 -16 0
1 10 -19 0
-13 16 18 0
-7 17 19 0
11 12 19 0
1 5 -20 0
4 -14 17 0
-4 -7 17 0
-1 11 -20 0
-2 -8 -14 0
4 -7 -10 0
-12 13 -19 0
-4 9 -14 0
8 14 19 0
-6 9 13 0
7 9 19 0
2 -5 -6 0
2 -10 19 0
-8 12 18 0
-3 -10 -19 0
-4 -6 10 0
3 8 -15 0
5 14 15 0
10 14 -20 0
-4 9 18 0
13 -16 17 0
-4 -9 12 0
2 4 -19 0
-3 5 17 0
-6 -11 -20 0
-4 -7 -12 0
-1 3 11 0
-1 -12 -16 0
-8 -13 19 0
-2 -3 13 0
-2 -5 -13 0
4 5 -9 0
-1 -2 -7 0
8 -9 -15 0
-16 -19 -20 0
-2 5 -12 0
-7 -9 -13 0
1 7 12 0
-10 19 20 0
-1 -11 -14 0
-2 4 18 0
-2 4 16 0
-6 7 -11 0
-16 17 -20 0
11 12 18 0
10 14 16 0
-1 -2 -17 0
-4 12 -17 0
-2 12 14 0
-4 10 18 0
-5 -17 20 0
4 -15 17 0
3 -13 20 0
3 13 16 0
9 -14 -20 0
8 11 15 0
-3 -9 14 0
5 -15 19 0
-3 -12 16 0
1 17 20 0
-9 12 -19 0
-1 10 -14 0
-7 12 18 0
-2 -13 19 0
7 9 20 0
9 11 -15 0
9 -12 15 0
-1 -2 -6 0
-4 7 -15 0
-4 10 16 0
